************************************************************************
file with basedata            : md375_.bas
initial value random generator: 1740406969
************************************************************************
projects                      :  1
jobs (incl. supersource/sink ):  22
horizon                       :  154
RESOURCES
  - renewable                 :  2   R
  - nonrenewable              :  2   N
  - doubly constrained        :  0   D
************************************************************************
PROJECT INFORMATION:
pronr.  #jobs rel.date duedate tardcost  MPM-Time
    1     20      0       19       11       19
************************************************************************
PRECEDENCE RELATIONS:
jobnr.    #modes  #successors   successors
   1        1          3           2   3   4
   2        3          2           6  18
   3        3          3          10  15  18
   4        3          3           5   6   7
   5        3          2           8  10
   6        3          3           9  11  14
   7        3          2          11  18
   8        3          3           9  15  21
   9        3          1          16
  10        3          3          11  12  17
  11        3          1          13
  12        3          1          13
  13        3          3          16  20  21
  14        3          1          15
  15        3          2          19  20
  16        3          1          19
  17        3          1          19
  18        3          2          20  21
  19        3          1          22
  20        3          1          22
  21        3          1          22
  22        1          0        
************************************************************************
REQUESTS/DURATIONS:
jobnr. mode duration  R 1  R 2  N 1  N 2
------------------------------------------------------------------------
  1      1     0       0    0    0    0
  2      1     3       3    9    3    7
         2     8       3    8    2    6
         3    10       3    8    2    5
  3      1     1       3    9    5    7
         2     4       3    6    5    7
         3     8       2    4    4    6
  4      1     3       7   10    3    8
         2    10       3    9    3    6
         3    10       4   10    2    7
  5      1     1       7    6    3    5
         2     5       7    5    3    3
         3     8       2    5    2    2
  6      1     2       7    7   10    9
         2     7       6    6    7    8
         3     7       7    4    6    8
  7      1     2       7    7    3    8
         2     2       9    5    3    9
         3     8       4    4    1    6
  8      1     1       6    7   10    9
         2     3       5    6    7    8
         3     5       4    3    7    8
  9      1     2      10    5    8    2
         2     5       9    4    8    2
         3     7       8    2    7    2
 10      1     2       8    6    7    6
         2     6       8    5    6    4
         3     6       7    3    6    5
 11      1     3       2    5    5   10
         2     4       2    2    4    9
         3    10       1    2    4    7
 12      1     1       2    9    4    6
         2     7       2    4    2    5
         3     8       2    4    1    4
 13      1     2       9    7    7    6
         2     5       9    7    7    5
         3     7       8    7    6    2
 14      1     9       8    9    6    8
         2    10       6    9    5    6
         3    10       6    8    5    7
 15      1     1       8    4    3    6
         2     5       8    4    3    5
         3     8       7    3    1    2
 16      1     1       2    8    7    3
         2     2       2    8    6    2
         3     7       1    8    5    2
 17      1     5       8    7    7    8
         2     6       7    4    6    6
         3     6       7    4    5    7
 18      1     3       6    9    7    8
         2     5       6    9    5    7
         3     6       5    8    4    7
 19      1     3       4    4   10    8
         2     4       4    3    9    7
         3     5       4    3    7    5
 20      1     4       8    1    6    7
         2     5       7    1    6    4
         3     8       6    1    5    4
 21      1     1       9    4    9    6
         2     8       9    2    9    6
         3    10       8    2    8    3
 22      1     0       0    0    0    0
************************************************************************
RESOURCEAVAILABILITIES:
  R 1  R 2  N 1  N 2
   29   35  114  127
************************************************************************
MAXIMAL LAGS:
from  to  type  delay
    1   12   ES      0
    1    2   ES      0
    2   12   ES      0
    1    3   ES      0
    3   12   ES      0
    1    4   ES      0
    4   12   ES      0
    1    5   ES      0
    5   12   ES      0
    1    6   ES      0
    6   12   ES      0
    1    7   ES      0
    7   12   ES      0
    1    8   ES      0
    8   12   ES      0
    1    9   ES      0
    9   12   ES      0
    1   10   ES      0
   10   12   ES      0
    1   11   ES      0
   11   12   ES      0
    1   12   ES      0
    2    6   SS     -7
    2    6   SE     10
    2    6   ES     -5
    2    6   EE     -8
    2   18   SS      3
    2   18   SE     -2
    2   18   ES      4
    2   18   EE      5
    3   10   SS      5
    3   10   SE    -10
    3   10   ES    -10
    3   10   EE      5
    3   15   SS     -2
    3   15   SE      7
    3   15   ES     -7
    3   15   EE    -12
    3   18   SS      1
    3   18   SE     -6
    3   18   ES    -12
    3   18   EE     -4
    4    5   SS     -9
    4    5   SE      0
    4    5   ES     -1
    4    5   EE     -8
    4    6   SS      2
    4    6   SE     -7
    6    4   SE      0
    4    6   ES      0
    4    6   EE    -10
    4    7   SS      5
    4    7   SE      6
    4    7   ES     -9
    4    7   EE    -12
    5    8   SS      6
    5    8   SE     -1
    5    8   ES     -5
    5    8   EE     -9
    5   10   SS    -11
    5   10   SE    -12
    5   10   ES    -10
    5   10   EE      2
    6    9   SS      7
    6    9   SE      9
    6    9   ES     -7
    6    9   EE     12
    6   11   SS     -2
    6   11   SE    -10
    6   11   ES     -5
    6   11   EE      0
    6   14   SS      8
    6   14   SE     -7
    6   14   ES     -8
    6   14   EE     -6
    7   11   SS      5
    7   11   SE      8
    7   11   ES    -12
    7   11   EE    -10
    7   18   SS     -6
    7   18   SE      9
    7   18   ES      2
    7   18   EE    -11
    8    9   SS     -7
    8    9   SE    -12
    8    9   ES      6
    8    9   EE      8
    8   15   SS      5
    8   15   SE    -10
    8   15   ES      7
    8   15   EE     -3
    8   21   SS    -12
    8   21   SE    -10
    8   21   ES     12
    8   21   EE     -4
    9   16   SS      0
    9   16   SE      7
    9   16   ES      0
    9   16   EE    -10
   10   11   SS     10
   10   11   SE     -5
   10   11   ES      0
   10   11   EE    -11
   10   17   SS      2
   10   17   SE      3
   10   17   ES     -8
   10   17   EE      3
   11   13   SS     -7
   11   13   SE    -11
   11   13   ES      8
   11   13   EE     11
   12   13   SS     -3
   12   13   SE     -1
   12   13   ES    -11
   12   13   EE     10
   13   16   SS     10
   13   16   SE      6
   13   16   ES      5
   13   16   EE    -12
   13   20   SS      1
   13   20   SE     11
   13   20   ES     -6
   13   20   EE     10
   13   21   SS      9
   13   21   SE     -1
   13   21   ES     -5
   13   21   EE     -5
   14   15   SS     -6
   14   15   SE     -1
   14   15   ES    -12
   14   15   EE     -9
   15   19   SS      0
   15   19   SE     10
   15   19   ES     -7
   15   19   EE      1
   15   20   SS     -8
   15   20   SE     -2
   15   20   ES    -10
   15   20   EE    -11
   16   19   SS     -3
   16   19   SE      6
   16   19   ES     -4
   16   19   EE      0
   17   19   SS     -9
   17   19   SE      3
   17   19   ES     -5
   17   19   EE    -11
   18   20   SS     -1
   18   20   SE      9
   18   20   ES    -10
   18   20   EE     11
   18   21   SS     -2
   18   21   SE     -9
   18   21   ES     -6
   18   21   EE     -5
   19   22   SS      9
   19   22   SE     -8
   19   22   ES    -12
   19   22   EE      6
   20   22   SS      0
   20   22   SE      2
   20   22   ES     -6
   20   22   EE    -11
   21   22   SS      6
   21   22   SE     -8
   21   22   ES     -3
   21   22   EE    -12
************************************************************************
